p cnf 109 384
-6 4 0
-6 5 0
-4 -5 6 0
-3 6 -7 0
3 -6 -7 0
-3 -6 7 0
3 6 7 0
8 7 0
8 -3 0
-7 3 -8 0
-9 2 0
-9 -8 0
-2 8 9 0
-11 -6 0
-11 10 0
6 -10 11 0
9 11 -12 0
-9 -11 -12 0
9 -11 12 0
-9 11 12 0
1 -12 -13 0
-1 12 -13 0
1 12 13 0
-1 -12 13 0
5 -8 -14 0
-5 8 -14 0
5 8 14 0
-5 -8 14 0
-15 -13 0
-15 14 0
13 -14 15 0
17 2 0
17 16 0
-2 -16 -17 0
-7 17 -18 0
7 -17 -18 0
-7 -17 18 0
7 17 18 0
19 15 0
19 18 0
-15 -18 -19 0
-22 20 0
-22 -21 0
-20 21 22 0
-18 -22 -23 0
18 22 -23 0
-18 22 23 0
18 -22 23 0
-24 -4 0
-24 2 0
4 -2 24 0
6 -1 -25 0
-6 1 -25 0
6 1 25 0
-6 -1 25 0
-25 -16 -26 0
25 16 -26 0
-25 16 26 0
25 -16 26 0
-27 24 0
-27 -26 0
-24 26 27 0
-30 -16 0
-30 29 0
16 -29 30 0
31 30 0
31 1 0
-30 -1 -31 0
-32 -12 0
-32 31 0
12 -31 32 0
33 28 0
33 32 0
-28 -32 -33 0
27 -33 -34 0
-27 33 -34 0
27 33 34 0
-27 -33 34 0
-34 1 -35 0
34 -1 -35 0
-34 -1 35 0
34 1 35 0
36 -23 0
36 -35 0
23 35 -36 0
39 -38 0
39 20 0
38 -20 -39 0
-40 -37 0
-40 -39 0
37 39 40 0
13 31 -41 0
-13 -31 -41 0
13 -31 41 0
-13 31 41 0
42 -16 0
42 41 0
16 -41 -42 0
18 42 -43 0
-18 -42 -43 0
18 -42 43 0
-18 42 43 0
44 -16 0
44 43 0
16 -43 -44 0
45 -8 0
45 -3 0
8 3 -45 0
-39 -45 -46 0
39 45 -46 0
-39 45 46 0
39 -45 46 0
47 -44 0
47 -46 0
44 46 -47 0
48 40 0
48 47 0
-40 -47 -48 0
-49 36 0
-49 -48 0
-36 48 49 0
50 -20 0
50 2 0
20 -2 -50 0
34 -50 -51 0
-34 50 -51 0
34 50 51 0
-34 -50 51 0
-52 5 0
-52 -7 0
-5 7 52 0
53 9 0
53 10 0
-9 -10 -53 0
-21 -53 -54 0
21 53 -54 0
-21 53 54 0
21 -53 54 0
-52 54 -55 0
52 -54 -55 0
-52 -54 55 0
52 54 55 0
-56 51 0
-56 -55 0
-51 55 56 0
57 -38 0
57 1 0
38 -1 -57 0
58 1 0
58 -57 0
-1 57 -58 0
-58 18 -59 0
58 -18 -59 0
-58 -18 59 0
58 18 59 0
60 56 0
60 59 0
-56 -59 -60 0
61 -22 0
61 -38 0
22 38 -61 0
62 -13 0
62 -1 0
13 1 -62 0
-63 61 0
-63 62 0
-61 -62 63 0
-25 -32 -64 0
25 32 -64 0
-25 32 64 0
25 -32 64 0
66 20 0
66 -65 0
-20 65 -66 0
66 45 -67 0
-66 -45 -67 0
66 -45 67 0
-66 45 67 0
64 67 -68 0
-64 -67 -68 0
64 -67 68 0
-64 67 68 0
28 42 -69 0
-28 -42 -69 0
28 -42 69 0
-28 42 69 0
-70 41 0
-70 -29 0
-41 29 70 0
53 -70 -71 0
-53 70 -71 0
53 70 71 0
-53 -70 71 0
57 -71 -72 0
-57 71 -72 0
57 71 72 0
-57 -71 72 0
73 -69 0
73 -72 0
69 72 -73 0
-74 68 0
-74 73 0
-68 -73 74 0
-63 -74 -75 0
63 74 -75 0
-63 74 75 0
63 -74 75 0
76 14 0
76 8 0
-14 -8 -76 0
77 4 0
77 -31 0
-4 31 -77 0
76 77 -78 0
-76 -77 -78 0
76 -77 78 0
-76 77 78 0
14 -31 -79 0
-14 31 -79 0
14 31 79 0
-14 -31 79 0
-80 78 0
-80 79 0
-78 -79 80 0
-81 75 0
-81 -80 0
-75 80 81 0
82 60 0
82 -81 0
-60 81 -82 0
83 -49 0
83 -82 0
49 82 -83 0
84 -70 0
84 -29 0
70 29 -84 0
3 18 -85 0
-3 -18 -85 0
3 -18 85 0
-3 18 85 0
-85 -30 -86 0
85 30 -86 0
-85 30 86 0
85 -30 86 0
-87 -9 0
-87 86 0
9 -86 87 0
-88 87 0
-88 -7 0
-87 7 88 0
84 -88 -89 0
-84 88 -89 0
84 88 89 0
-84 -88 89 0
-2 18 -90 0
2 -18 -90 0
-2 -18 90 0
2 18 90 0
-91 -89 0
-91 -90 0
89 90 91 0
-92 83 0
-92 91 0
-83 -91 92 0
93 15 0
93 -11 0
-15 11 -93 0
-94 -4 0
-94 -93 0
4 93 94 0
-95 -44 0
-95 -94 0
44 94 95 0
8 2 -96 0
-8 -2 -96 0
8 -2 96 0
-8 2 96 0
-97 -95 0
-97 96 0
95 -96 97 0
-98 -9 0
-98 -10 0
9 10 98 0
-99 -57 0
-99 -12 0
57 12 99 0
100 -98 0
100 -99 0
98 99 -100 0
-101 6 0
-101 10 0
-6 -10 101 0
-102 -100 0
-102 -101 0
100 101 102 0
-103 6 0
-103 -17 0
-6 17 103 0
-104 -103 0
-104 -41 0
103 41 104 0
105 104 0
105 70 0
-104 -70 -105 0
-106 -102 0
-106 105 0
102 -105 106 0
97 106 -107 0
-97 -106 -107 0
97 -106 107 0
-97 106 107 0
92 -107 -108 0
-92 107 -108 0
92 107 108 0
-92 -107 108 0
-19 -108 -109 0
19 108 -109 0
-19 108 109 0
19 -108 109 0
-93 5 -34 87 0
-82 -15 -47 87 0
71 -74 0
-21 108 -11 103 98 0
-102 -84 86 0
80 -99 0
-109 -21 36 -65 24 0
-69 -59 0
-61 71 33 0
-9 -109 -54 -14 20 80 0
91 -74 67 -48 0
109 -48 86 81 -7 -18 0
-92 58 -109 -9 -69 0
-14 -11 0
-76 -95 62 0
-56 -92 0
-4 10 18 79 -36 0
82 -1 7 0
56 -72 0
25 -106 -47 0
-89 56 18 -17 -48 -68 0
37 73 76 -74 -98 0
86 37 -25 105 0
-48 -33 0
42 34 70 -14 0
-109 -108 -89 -5 66 0
17 -59 0
94 -29 -67 -7 -81 -36 0
-82 -69 0
10 103 96 -109 -97 0
7 -66 15 3 0
-64 96 0
82 107 103 -108 0
-19 16 -60 -67 0
-54 37 0
-25 3 0
77 -107 101 -49 0
46 -14 74 -40 -6 16 0
25 -38 0
38 73 7 18 103 71 0
89 -1 105 17 96 -80 0
-1 78 0
-79 99 -12 0
47 -41 77 0
87 79 -54 0
-48 47 -17 -80 -55 -71 0
91 43 0
64 59 -55 0
46 -73 94 0
97 -36 -54 0
-66 -61 94 0
-100 -17 30 0
-86 -108 -88 35 -29 0
-36 45 4 65 -20 0
65 -54 0
-85 -5 -82 0
94 3 -27 -95 42 0
-22 65 0
4 34 80 -75 0
-77 -95 79 65 -102 47 0
91 93 82 -105 -39 -3 0
64 -80 0
50 -25 1 -103 81 0
-54 -14 77 37 17 -38 0
109 0
